NAME: SCAIL856_4113_92
COMMENT: Generated as the SCAIL100 dataset for the MIM2025 SCLDC Challenge
TYPE: Multi-Depot CVRP
DEPOTS: 4
DIMENSION: 860
EDGE_WEIGHT_TYPE: EUC_2D
CAPACITY: 10

NODE_COORD_SECTION 
1    823  990 
2    162  858 
3    563  571 
4    850  79  
5    627  665 
6    511  435 
7    858  152 
8    870  117 
9    856  646 
10   472  611 
11   689  487 
12   736  571 
13   117  581 
14   861  315 
15   437  671 
16   6    475 
17   992  515 
18   465  95  
19   393  601 
20   34   412 
21   963  973 
22   393  192 
23   526  227 
24   231  669 
25   604  802 
26   191  731 
27   428  846 
28   186  536 
29   472  85  
30   770  178 
31   598  889 
32   829  502 
33   696  903 
34   904  276 
35   993  592 
36   145  373 
37   336  569 
38   33   806 
39   70   715 
40   505  545 
41   622  145 
42   470  169 
43   516  136 
44   62   869 
45   698  302 
46   417  917 
47   135  197 
48   418  415 
49   110  918 
50   574  644 
51   818  376 
52   561  952 
53   513  494 
54   426  764 
55   620  629 
56   211  848 
57   263  230 
58   366  224 
59   611  400 
60   930  791 
61   1    202 
62   724  933 
63   243  907 
64   297  875 
65   719  836 
66   434  206 
67   88   234 
68   9    606 
69   274  86  
70   11   359 
71   349  9   
72   697  863 
73   322  419 
74   185  395 
75   568  551 
76   425  404 
77   147  539 
78   248  869 
79   510  210 
80   869  408 
81   118  750 
82   468  491 
83   70   948 
84   971  437 
85   793  925 
86   523  170 
87   893  118 
88   459  918 
89   382  707 
90   17   951 
91   76   771 
92   243  381 
93   381  333 
94   731  74  
95   647  62  
96   667  556 
97   872  171 
98   386  933 
99   387  22  
100  838  959 
101  439  972 
102  745  880 
103  251  345 
104  611  889 
105  471  110 
106  594  162 
107  817  994 
108  906  843 
109  462  290 
110  592  903 
111  837  87  
112  136  534 
113  244  485 
114  186  364 
115  223  938 
116  978  44  
117  595  163 
118  216  14  
119  604  248 
120  334  235 
121  813  251 
122  301  485 
123  166  907 
124  595  666 
125  412  810 
126  183  987 
127  921  449 
128  846  266 
129  657  906 
130  563  988 
131  791  330 
132  877  281 
133  205  624 
134  533  53  
135  328  587 
136  163  389 
137  60   278 
138  137  489 
139  530  402 
140  22   898 
141  163  227 
142  810  474 
143  665  473 
144  982  693 
145  905  482 
146  104  424 
147  445  70  
148  162  38  
149  420  135 
150  939  453 
151  595  790 
152  409  669 
153  940  296 
154  687  506 
155  462  653 
156  378  681 
157  899  514 
158  833  825 
159  305  288 
160  774  519 
161  144  352 
162  556  315 
163  723  74  
164  200  518 
165  91   611 
166  142  693 
167  388  825 
168  69   443 
169  619  739 
170  753  590 
171  392  468 
172  639  187 
173  99   313 
174  319  981 
175  959  960 
176  520  324 
177  890  699 
178  429  880 
179  330  102 
180  835  494 
181  780  985 
182  433  850 
183  572  956 
184  243  442 
185  224  438 
186  357  473 
187  111  579 
188  83   81  
189  586  683 
190  156  303 
191  889  730 
192  246  215 
193  421  494 
194  352  385 
195  666  810 
196  455  645 
197  765  38  
198  227  372 
199  492  801 
200  326  360 
201  398  775 
202  818  553 
203  313  408 
204  318  752 
205  236  951 
206  979  12  
207  36   279 
208  573  236 
209  656  756 
210  209  445 
211  892  865 
212  332  924 
213  366  837 
214  75   225 
215  950  717 
216  697  546 
217  743  513 
218  1000 327 
219  473  899 
220  384  342 
221  626  95  
222  215  622 
223  106  477 
224  909  136 
225  168  937 
226  939  335 
227  420  255 
228  10   91  
229  479  597 
230  198  825 
231  657  585 
232  447  474 
233  930  869 
234  263  564 
235  202  32  
236  657  594 
237  976  985 
238  881  586 
239  119  690 
240  242  123 
241  460  849 
242  415  670 
243  906  261 
244  285  75  
245  731  934 
246  823  919 
247  221  823 
248  423  781 
249  87   176 
250  60   460 
251  811  944 
252  935  431 
253  701  929 
254  837  8   
255  590  149 
256  75   485 
257  616  952 
258  54   947 
259  113  606 
260  873  483 
261  970  308 
262  159  731 
263  443  499 
264  553  532 
265  857  358 
266  748  726 
267  189  335 
268  537  106 
269  439  376 
270  347  540 
271  254  739 
272  127  131 
273  101  896 
274  869  863 
275  913  295 
276  507  501 
277  567  314 
278  822  940 
279  389  802 
280  518  111 
281  467  712 
282  899  229 
283  72   600 
284  616  17  
285  50   707 
286  289  287 
287  670  872 
288  644  771 
289  690  887 
290  492  741 
291  319  831 
292  832  562 
293  319  175 
294  583  770 
295  243  683 
296  242  477 
297  110  330 
298  572  779 
299  24   416 
300  412  879 
301  972  740 
302  943  268 
303  396  782 
304  555  43  
305  446  801 
306  360  203 
307  450  771 
308  314  334 
309  150  241 
310  262  809 
311  48   858 
312  762  875 
313  210  380 
314  751  466 
315  214  917 
316  798  169 
317  606  484 
318  198  680 
319  883  127 
320  874  536 
321  164  22  
322  361  307 
323  250  318 
324  614  115 
325  892  468 
326  711  29  
327  243  678 
328  84   700 
329  135  745 
330  605  542 
331  297  426 
332  719  625 
333  561  615 
334  898  377 
335  640  481 
336  273  706 
337  822  656 
338  464  521 
339  630  733 
340  12   531 
341  189  972 
342  34   61  
343  527  878 
344  781  493 
345  751  214 
346  706  72  
347  376  17  
348  749  680 
349  93   375 
350  656  727 
351  907  461 
352  446  490 
353  789  1000
354  893  145 
355  418  190 
356  197  194 
357  769  375 
358  705  183 
359  839  839 
360  216  949 
361  572  486 
362  783  511 
363  704  138 
364  168  634 
365  906  758 
366  18   317 
367  274  670 
368  667  583 
369  277  577 
370  672  698 
371  828  42  
372  428  984 
373  529  798 
374  912  917 
375  137  939 
376  819  735 
377  233  894 
378  959  867 
379  852  503 
380  853  858 
381  531  844 
382  606  847 
383  90   198 
384  319  259 
385  945  712 
386  127  345 
387  999  36  
388  737  692 
389  750  473 
390  529  236 
391  903  724 
392  479  415 
393  447  54  
394  984  142 
395  557  87  
396  897  501 
397  748  796 
398  775  395 
399  546  999 
400  102  446 
401  779  118 
402  566  401 
403  645  465 
404  281  30  
405  554  292 
406  300  156 
407  142  622 
408  519  343 
409  42   544 
410  476  220 
411  34   680 
412  79   593 
413  11   538 
414  941  719 
415  330  831 
416  975  968 
417  767  939 
418  616  788 
419  786  534 
420  906  865 
421  265  710 
422  913  266 
423  908  398 
424  568  348 
425  141  680 
426  594  238 
427  0    659 
428  428  453 
429  201  411 
430  680  427 
431  498  23  
432  533  228 
433  626  38  
434  519  64  
435  233  372 
436  438  512 
437  269  127 
438  208  962 
439  720  966 
440  474  843 
441  915  415 
442  880  219 
443  91   782 
444  22   673 
445  25   706 
446  911  570 
447  632  224 
448  392  401 
449  7    401 
450  173  195 
451  961  418 
452  146  843 
453  776  354 
454  420  63  
455  654  904 
456  128  965 
457  212  708 
458  35   508 
459  627  240 
460  966  761 
461  678  861 
462  876  953 
463  456  897 
464  688  237 
465  860  618 
466  835  692 
467  911  947 
468  451  428 
469  963  292 
470  672  18  
471  669  888 
472  60   951 
473  738  210 
474  195  340 
475  847  126 
476  903  188 
477  702  949 
478  628  496 
479  574  763 
480  808  274 
481  382  184 
482  13   476 
483  21   578 
484  648  819 
485  796  327 
486  309  218 
487  79   3   
488  23   102 
489  8    388 
490  127  577 
491  566  624 
492  239  229 
493  152  499 
494  734  626 
495  38   523 
496  895  314 
497  560  986 
498  194  761 
499  894  108 
500  284  426 
501  351  336 
502  671  188 
503  19   262 
504  290  60  
505  371  421 
506  555  907 
507  130  871 
508  765  213 
509  737  618 
510  290  972 
511  787  884 
512  830  199 
513  560  613 
514  730  121 
515  8    783 
516  757  712 
517  498  381 
518  361  632 
519  653  264 
520  671  309 
521  770  431 
522  233  65  
523  524  537 
524  341  910 
525  931  623 
526  624  197 
527  521  221 
528  536  749 
529  786  375 
530  548  723 
531  282  622 
532  839  149 
533  894  323 
534  698  537 
535  919  267 
536  224  608 
537  808  826 
538  867  485 
539  663  408 
540  884  565 
541  646  346 
542  374  552 
543  470  260 
544  721  934 
545  344  709 
546  30   998 
547  340  1   
548  503  464 
549  603  640 
550  522  563 
551  356  36  
552  388  334 
553  457  842 
554  578  723 
555  225  465 
556  160  744 
557  511  175 
558  847  219 
559  997  325 
560  466  280 
561  409  411 
562  305  183 
563  125  890 
564  161  974 
565  237  704 
566  787  106 
567  866  497 
568  761  691 
569  724  651 
570  31   208 
571  861  549 
572  592  779 
573  325  8   
574  352  779 
575  330  361 
576  449  977 
577  893  209 
578  314  505 
579  207  281 
580  35   196 
581  78   405 
582  663  430 
583  894  848 
584  889  86  
585  143  543 
586  204  410 
587  748  483 
588  161  448 
589  76   471 
590  853  419 
591  221  975 
592  87   755 
593  959  684 
594  884  25  
595  818  565 
596  749  456 
597  285  83  
598  258  493 
599  793  270 
600  324  676 
601  924  335 
602  768  344 
603  611  122 
604  975  893 
605  509  340 
606  780  556 
607  311  486 
608  314  253 
609  496  806 
610  532  85  
611  489  529 
612  655  552 
613  859  62  
614  462  8   
615  763  94  
616  963  119 
617  828  968 
618  100  168 
619  290  548 
620  408  293 
621  24   685 
622  499  411 
623  544  562 
624  750  667 
625  6    389 
626  554  603 
627  777  541 
628  187  837 
629  149  545 
630  828  348 
631  735  306 
632  437  850 
633  976  112 
634  224  575 
635  249  659 
636  725  112 
637  589  606 
638  131  29  
639  703  173 
640  669  598 
641  399  585 
642  943  847 
643  940  522 
644  832  732 
645  389  181 
646  899  255 
647  922  406 
648  51   176 
649  753  21  
650  121  766 
651  954  856 
652  749  972 
653  320  328 
654  151  608 
655  9    134 
656  183  597 
657  283  266 
658  689  823 
659  889  332 
660  189  985 
661  586  950 
662  271  557 
663  195  827 
664  460  582 
665  360  894 
666  758  922 
667  183  700 
668  337  767 
669  554  863 
670  931  859 
671  650  998 
672  499  271 
673  328  938 
674  46   75  
675  688  445 
676  698  99  
677  239  213 
678  597  434 
679  981  60  
680  293  678 
681  675  353 
682  692  433 
683  436  89  
684  374  770 
685  325  11  
686  858  892 
687  42   971 
688  7    348 
689  17   142 
690  951  711 
691  497  877 
692  603  193 
693  293  296 
694  718  189 
695  135  762 
696  878  568 
697  680  333 
698  204  224 
699  220  568 
700  767  737 
701  830  259 
702  204  898 
703  479  599 
704  722  833 
705  25   994 
706  251  174 
707  576  132 
708  139  341 
709  102  212 
710  431  360 
711  27   685 
712  804  224 
713  535  881 
714  93   657 
715  191  244 
716  339  807 
717  3    193 
718  897  815 
719  489  105 
720  716  385 
721  855  580 
722  371  885 
723  558  46  
724  882  844 
725  203  901 
726  132  859 
727  185  587 
728  575  135 
729  758  656 
730  841  910 
731  95   977 
732  56   729 
733  882  26  
734  703  549 
735  307  82  
736  420  526 
737  100  27  
738  893  319 
739  904  566 
740  399  161 
741  682  638 
742  375  725 
743  311  304 
744  932  413 
745  432  612 
746  301  556 
747  762  347 
748  142  630 
749  511  347 
750  654  405 
751  555  54  
752  779  436 
753  411  656 
754  163  451 
755  878  805 
756  973  158 
757  70   897 
758  383  463 
759  249  612 
760  603  39  
761  697  232 
762  689  655 
763  989  102 
764  831  92  
765  362  498 
766  447  57  
767  280  227 
768  652  346 
769  359  609 
770  60   196 
771  324  889 
772  114  414 
773  358  393 
774  964  450 
775  472  424 
776  605  32  
777  951  13  
778  45   418 
779  348  855 
780  543  57  
781  38   806 
782  69   784 
783  163  181 
784  988  178 
785  167  709 
786  222  230 
787  819  733 
788  231  217 
789  360  856 
790  197  322 
791  857  350 
792  266  13  
793  356  733 
794  875  395 
795  806  561 
796  922  992 
797  292  825 
798  463  69  
799  146  222 
800  121  961 
801  498  682 
802  54   404 
803  239  669 
804  63   44  
805  169  354 
806  964  863 
807  20   649 
808  488  992 
809  925  764 
810  168  883 
811  445  792 
812  824  294 
813  950  519 
814  91   956 
815  149  232 
816  387  460 
817  859  517 
818  972  296 
819  754  473 
820  757  231 
821  403  813 
822  547  31  
823  721  296 
824  342  138 
825  835  992 
826  930  168 
827  515  227 
828  962  538 
829  929  361 
830  5    870 
831  214  635 
832  371  61  
833  641  977 
834  848  144 
835  2    87  
836  831  311 
837  583  865 
838  904  142 
839  25   601 
840  543  694 
841  179  488 
842  223  585 
843  14   164 
844  830  369 
845  804  707 
846  740  942 
847  203  207 
848  357  265 
849  434  634 
850  630  42  
851  89   868 
852  981  376 
853  700  106 
854  860  95  
855  599  63  
856  371  294 
857  242  320 
858  892  792 
859  347  95  
860  336  345 

DEMAND_SECTION
1    0   
2    0   
3    0   
4    0   
5    1   
6    1   
7    1   
8    1   
9    1   
10   1   
11   1   
12   1   
13   1   
14   1   
15   1   
16   1   
17   1   
18   1   
19   1   
20   1   
21   1   
22   1   
23   1   
24   1   
25   1   
26   1   
27   1   
28   1   
29   1   
30   1   
31   1   
32   1   
33   1   
34   1   
35   1   
36   1   
37   1   
38   1   
39   1   
40   1   
41   1   
42   1   
43   1   
44   1   
45   1   
46   1   
47   1   
48   1   
49   1   
50   1   
51   1   
52   1   
53   1   
54   1   
55   1   
56   1   
57   1   
58   1   
59   1   
60   1   
61   1   
62   1   
63   1   
64   1   
65   1   
66   1   
67   1   
68   1   
69   1   
70   1   
71   1   
72   1   
73   1   
74   1   
75   1   
76   1   
77   1   
78   1   
79   1   
80   1   
81   1   
82   1   
83   1   
84   1   
85   1   
86   1   
87   1   
88   1   
89   1   
90   1   
91   1   
92   1   
93   1   
94   1   
95   1   
96   1   
97   1   
98   1   
99   1   
100  1   
101  1   
102  1   
103  1   
104  1   
105  1   
106  1   
107  1   
108  1   
109  1   
110  1   
111  1   
112  1   
113  1   
114  1   
115  1   
116  1   
117  1   
118  1   
119  1   
120  1   
121  1   
122  1   
123  1   
124  1   
125  1   
126  1   
127  1   
128  1   
129  1   
130  1   
131  1   
132  1   
133  1   
134  1   
135  1   
136  1   
137  1   
138  1   
139  1   
140  1   
141  1   
142  1   
143  1   
144  1   
145  1   
146  1   
147  1   
148  1   
149  1   
150  1   
151  1   
152  1   
153  1   
154  1   
155  1   
156  1   
157  1   
158  1   
159  1   
160  1   
161  1   
162  1   
163  1   
164  1   
165  1   
166  1   
167  1   
168  1   
169  1   
170  1   
171  1   
172  1   
173  1   
174  1   
175  1   
176  1   
177  1   
178  1   
179  1   
180  1   
181  1   
182  1   
183  1   
184  1   
185  1   
186  1   
187  1   
188  1   
189  1   
190  1   
191  1   
192  1   
193  1   
194  1   
195  1   
196  1   
197  1   
198  1   
199  1   
200  1   
201  1   
202  1   
203  1   
204  1   
205  1   
206  1   
207  1   
208  1   
209  1   
210  1   
211  1   
212  1   
213  1   
214  1   
215  1   
216  1   
217  1   
218  1   
219  1   
220  1   
221  1   
222  1   
223  1   
224  1   
225  1   
226  1   
227  1   
228  1   
229  1   
230  1   
231  1   
232  1   
233  1   
234  1   
235  1   
236  1   
237  1   
238  1   
239  1   
240  1   
241  1   
242  1   
243  1   
244  1   
245  1   
246  1   
247  1   
248  1   
249  1   
250  1   
251  1   
252  1   
253  1   
254  1   
255  1   
256  1   
257  1   
258  1   
259  1   
260  1   
261  1   
262  1   
263  1   
264  1   
265  1   
266  1   
267  1   
268  1   
269  1   
270  1   
271  1   
272  1   
273  1   
274  1   
275  1   
276  1   
277  1   
278  1   
279  1   
280  1   
281  1   
282  1   
283  1   
284  1   
285  1   
286  1   
287  1   
288  1   
289  1   
290  1   
291  1   
292  1   
293  1   
294  1   
295  1   
296  1   
297  1   
298  1   
299  1   
300  1   
301  1   
302  1   
303  1   
304  1   
305  1   
306  1   
307  1   
308  1   
309  1   
310  1   
311  1   
312  1   
313  1   
314  1   
315  1   
316  1   
317  1   
318  1   
319  1   
320  1   
321  1   
322  1   
323  1   
324  1   
325  1   
326  1   
327  1   
328  1   
329  1   
330  1   
331  1   
332  1   
333  1   
334  1   
335  1   
336  1   
337  1   
338  1   
339  1   
340  1   
341  1   
342  1   
343  1   
344  1   
345  1   
346  1   
347  1   
348  1   
349  1   
350  1   
351  1   
352  1   
353  1   
354  1   
355  1   
356  1   
357  1   
358  1   
359  1   
360  1   
361  1   
362  1   
363  1   
364  1   
365  1   
366  1   
367  1   
368  1   
369  1   
370  1   
371  1   
372  1   
373  1   
374  1   
375  1   
376  1   
377  1   
378  1   
379  1   
380  1   
381  1   
382  1   
383  1   
384  1   
385  1   
386  1   
387  1   
388  1   
389  1   
390  1   
391  1   
392  1   
393  1   
394  1   
395  1   
396  1   
397  1   
398  1   
399  1   
400  1   
401  1   
402  1   
403  1   
404  1   
405  1   
406  1   
407  1   
408  1   
409  1   
410  1   
411  1   
412  1   
413  1   
414  1   
415  1   
416  1   
417  1   
418  1   
419  1   
420  1   
421  1   
422  1   
423  1   
424  1   
425  1   
426  1   
427  1   
428  1   
429  1   
430  1   
431  1   
432  1   
433  1   
434  1   
435  1   
436  1   
437  1   
438  1   
439  1   
440  1   
441  1   
442  1   
443  1   
444  1   
445  1   
446  1   
447  1   
448  1   
449  1   
450  1   
451  1   
452  1   
453  1   
454  1   
455  1   
456  1   
457  1   
458  1   
459  1   
460  1   
461  1   
462  1   
463  1   
464  1   
465  1   
466  1   
467  1   
468  1   
469  1   
470  1   
471  1   
472  1   
473  1   
474  1   
475  1   
476  1   
477  1   
478  1   
479  1   
480  1   
481  1   
482  1   
483  1   
484  1   
485  1   
486  1   
487  1   
488  1   
489  1   
490  1   
491  1   
492  1   
493  1   
494  1   
495  1   
496  1   
497  1   
498  1   
499  1   
500  1   
501  1   
502  1   
503  1   
504  1   
505  1   
506  1   
507  1   
508  1   
509  1   
510  1   
511  1   
512  1   
513  1   
514  1   
515  1   
516  1   
517  1   
518  1   
519  1   
520  1   
521  1   
522  1   
523  1   
524  1   
525  1   
526  1   
527  1   
528  1   
529  1   
530  1   
531  1   
532  1   
533  1   
534  1   
535  1   
536  1   
537  1   
538  1   
539  1   
540  1   
541  1   
542  1   
543  1   
544  1   
545  1   
546  1   
547  1   
548  1   
549  1   
550  1   
551  1   
552  1   
553  1   
554  1   
555  1   
556  1   
557  1   
558  1   
559  1   
560  1   
561  1   
562  1   
563  1   
564  1   
565  1   
566  1   
567  1   
568  1   
569  1   
570  1   
571  1   
572  1   
573  1   
574  1   
575  1   
576  1   
577  1   
578  1   
579  1   
580  1   
581  1   
582  1   
583  1   
584  1   
585  1   
586  1   
587  1   
588  1   
589  1   
590  1   
591  1   
592  1   
593  1   
594  1   
595  1   
596  1   
597  1   
598  1   
599  1   
600  1   
601  1   
602  1   
603  1   
604  1   
605  1   
606  1   
607  1   
608  1   
609  1   
610  1   
611  1   
612  1   
613  1   
614  1   
615  1   
616  1   
617  1   
618  1   
619  1   
620  1   
621  1   
622  1   
623  1   
624  1   
625  1   
626  1   
627  1   
628  1   
629  1   
630  1   
631  1   
632  1   
633  1   
634  1   
635  1   
636  1   
637  1   
638  1   
639  1   
640  1   
641  1   
642  1   
643  1   
644  1   
645  1   
646  1   
647  1   
648  1   
649  1   
650  1   
651  1   
652  1   
653  1   
654  1   
655  1   
656  1   
657  1   
658  1   
659  1   
660  1   
661  1   
662  1   
663  1   
664  1   
665  1   
666  1   
667  1   
668  1   
669  1   
670  1   
671  1   
672  1   
673  1   
674  1   
675  1   
676  1   
677  1   
678  1   
679  1   
680  1   
681  1   
682  1   
683  1   
684  1   
685  1   
686  1   
687  1   
688  1   
689  1   
690  1   
691  1   
692  1   
693  1   
694  1   
695  1   
696  1   
697  1   
698  1   
699  1   
700  1   
701  1   
702  1   
703  1   
704  1   
705  1   
706  1   
707  1   
708  1   
709  1   
710  1   
711  1   
712  1   
713  1   
714  1   
715  1   
716  1   
717  1   
718  1   
719  1   
720  1   
721  1   
722  1   
723  1   
724  1   
725  1   
726  1   
727  1   
728  1   
729  1   
730  1   
731  1   
732  1   
733  1   
734  1   
735  1   
736  1   
737  1   
738  1   
739  1   
740  1   
741  1   
742  1   
743  1   
744  1   
745  1   
746  1   
747  1   
748  1   
749  1   
750  1   
751  1   
752  1   
753  1   
754  1   
755  1   
756  1   
757  1   
758  1   
759  1   
760  1   
761  1   
762  1   
763  1   
764  1   
765  1   
766  1   
767  1   
768  1   
769  1   
770  1   
771  1   
772  1   
773  1   
774  1   
775  1   
776  1   
777  1   
778  1   
779  1   
780  1   
781  1   
782  1   
783  1   
784  1   
785  1   
786  1   
787  1   
788  1   
789  1   
790  1   
791  1   
792  1   
793  1   
794  1   
795  1   
796  1   
797  1   
798  1   
799  1   
800  1   
801  1   
802  1   
803  1   
804  1   
805  1   
806  1   
807  1   
808  1   
809  1   
810  1   
811  1   
812  1   
813  1   
814  1   
815  1   
816  1   
817  1   
818  1   
819  1   
820  1   
821  1   
822  1   
823  1   
824  1   
825  1   
826  1   
827  1   
828  1   
829  1   
830  1   
831  1   
832  1   
833  1   
834  1   
835  1   
836  1   
837  1   
838  1   
839  1   
840  1   
841  1   
842  1   
843  1   
844  1   
845  1   
846  1   
847  1   
848  1   
849  1   
850  1   
851  1   
852  1   
853  1   
854  1   
855  1   
856  1   
857  1   
858  1   
859  1   
860  1   

DEPOT_SECTION
1    823  990 
2    162  858 
3    563  571 
4    850  79  
-1
EOF
